c uprop, v00.0, 
c reading from data/prog872.c.cnf
c done reading: 0.00372
p cnf 235 1220
-138 -161 0
-138 -157 0
138 157 161 0
-131 157 161 0
-131 -157 -161 0
131 157 -161 0
131 -157 161 0
138 -150 0
-148 -150 0
-138 148 150 0
-138 -143 148 0
138 -143 -148 0
138 143 148 0
-138 143 -148 0
-139 150 0
-136 -139 0
136 139 -150 0
-133 136 -150 0
-133 -136 150 0
133 136 150 0
133 -136 -150 0
-132 139 0
-129 -132 0
129 132 -139 0
129 -139 -159 0
-129 139 -159 0
129 139 159 0
-129 -139 159 0
132 -163 0
-153 -163 0
-132 153 163 0
-132 153 -164 0
132 -153 -164 0
132 153 164 0
-132 -153 164 0
163 -165 0
-145 -165 0
145 -163 165 0
145 -163 -166 0
-145 163 -166 0
145 163 166 0
-145 -163 166 0
165 -167 0
-141 -167 0
141 -165 167 0
141 -165 -168 0
-141 165 -168 0
141 165 168 0
-141 -165 168 0
157 -169 0
161 -169 0
-157 -161 169 0
-157 -161 -170 0
157 161 -170 0
-157 161 170 0
157 -161 170 0
-148 -157 171 0
-148 -169 171 0
-157 -169 171 0
148 157 -171 0
148 169 -171 0
157 169 -171 0
148 -171 -172 0
157 -171 -172 0
169 -171 -172 0
-148 171 172 0
-157 171 172 0
-169 171 172 0
-148 -157 -169 172 0
148 157 169 -172 0
-136 -148 173 0
-136 -171 173 0
-148 -171 173 0
136 148 -173 0
136 171 -173 0
148 171 -173 0
136 -173 -174 0
148 -173 -174 0
171 -173 -174 0
-136 173 174 0
-148 173 174 0
-171 173 174 0
-136 -148 -171 174 0
136 148 171 -174 0
-129 -136 175 0
-129 -173 175 0
-136 -173 175 0
129 136 -175 0
129 173 -175 0
136 173 -175 0
-127 129 -175 0
-127 136 -175 0
-127 173 -175 0
127 -129 175 0
127 -136 175 0
127 -173 175 0
127 -129 -136 -173 0
-127 129 136 173 0
126 -129 -153 0
126 -153 -175 0
126 -129 -175 0
-126 129 153 0
-126 153 175 0
-126 129 175 0
-125 -126 153 0
-125 -126 129 0
-125 -126 175 0
125 126 -153 0
125 126 -129 0
125 126 -175 0
125 -129 -153 -175 0
-125 129 153 175 0
124 -145 -153 0
124 -126 -145 0
124 -126 -153 0
-124 145 153 0
-124 126 145 0
-124 126 153 0
-123 -124 145 0
-123 -124 153 0
-123 -124 126 0
123 124 -145 0
123 124 -153 0
123 124 -126 0
123 -126 -145 -153 0
-123 126 145 153 0
122 -141 -145 0
122 -124 -141 0
122 -124 -145 0
-122 141 145 0
-122 124 141 0
-122 124 145 0
-122 141 -160 0
-122 145 -160 0
-122 124 -160 0
122 -141 160 0
122 -145 160 0
122 -124 160 0
-124 -141 -145 160 0
124 141 145 -160 0
141 -155 0
122 -155 0
-122 -141 155 0
-122 -141 -147 0
122 141 -147 0
122 -141 147 0
-122 141 147 0
-134 172 0
-134 161 0
134 -161 -172 0
-128 -161 -172 0
-128 161 172 0
128 161 -172 0
128 -161 172 0
151 -157 -174 0
-134 151 -174 0
-134 151 -157 0
-151 157 174 0
134 -151 174 0
134 -151 157 0
-144 -151 174 0
-144 -151 157 0
134 -144 -151 0
144 151 -174 0
144 151 -157 0
-134 144 151 0
-134 144 -157 -174 0
134 -144 157 174 0
-127 140 -148 0
-127 140 -151 0
140 -148 -151 0
127 -140 148 0
127 -140 151 0
-140 148 151 0
-121 127 -140 0
-121 -140 148 0
-121 -140 151 0
121 -127 140 0
121 140 -148 0
121 140 -151 0
121 -127 -148 -151 0
-121 127 148 151 0
120 -125 -136 0
120 -125 -140 0
120 -136 -140 0
-120 125 136 0
-120 125 140 0
-120 136 140 0
-119 -120 125 0
-119 -120 136 0
-119 -120 140 0
119 120 -125 0
119 120 -136 0
119 120 -140 0
119 -125 -136 -140 0
-119 125 136 140 0
118 -123 -129 0
118 -120 -123 0
118 -120 -129 0
-118 123 129 0
-118 120 123 0
-118 120 129 0
-117 -118 123 0
-117 -118 129 0
-117 -118 120 0
117 118 -123 0
117 118 -129 0
117 118 -120 0
117 -120 -123 -129 0
-117 120 123 129 0
116 -153 -160 0
116 -118 -160 0
116 -118 -153 0
-116 153 160 0
-116 118 160 0
-116 118 153 0
-115 -116 160 0
-115 -116 153 0
-115 -116 118 0
115 116 -160 0
115 116 -153 0
115 116 -118 0
115 -118 -153 -160 0
-115 118 153 160 0
114 -145 -147 0
114 -116 -147 0
114 -116 -145 0
-114 145 147 0
-114 116 147 0
-114 116 145 0
-113 -114 147 0
-113 -114 145 0
-113 -114 116 0
113 114 -147 0
113 114 -145 0
113 114 -116 0
113 -116 -145 -147 0
-113 116 145 147 0
112 -141 -155 0
112 -114 -155 0
112 -114 -141 0
-112 141 155 0
-112 114 155 0
-112 114 141 0
-111 -112 155 0
-111 -112 141 0
-111 -112 114 0
111 112 -155 0
111 112 -141 0
111 112 -114 0
111 -114 -141 -155 0
-111 114 141 155 0
-110 144 0
-110 161 0
110 -144 -161 0
-109 -144 -161 0
-109 144 161 0
109 -144 161 0
109 144 -161 0
108 -121 -157 0
108 -110 -121 0
108 -110 -157 0
-108 121 157 0
-108 110 121 0
-108 110 157 0
-107 -108 121 0
-107 -108 157 0
-107 -108 110 0
107 108 -121 0
107 108 -157 0
107 108 -110 0
107 -110 -121 -157 0
-107 110 121 157 0
106 -119 -148 0
106 -108 -119 0
106 -108 -148 0
-106 119 148 0
-106 108 119 0
-106 108 148 0
-106 119 -176 0
-106 148 -176 0
-106 108 -176 0
106 -119 176 0
106 -148 176 0
106 -108 176 0
-108 -119 -148 176 0
108 119 148 -176 0
-117 -136 177 0
-106 -117 177 0
-106 -136 177 0
117 136 -177 0
106 117 -177 0
106 136 -177 0
117 -177 -178 0
136 -177 -178 0
106 -177 -178 0
-117 177 178 0
-136 177 178 0
-106 177 178 0
-106 -117 -136 178 0
106 117 136 -178 0
-115 -129 179 0
-115 -177 179 0
-129 -177 179 0
115 129 -179 0
115 177 -179 0
129 177 -179 0
115 -179 -180 0
129 -179 -180 0
177 -179 -180 0
-115 179 180 0
-129 179 180 0
-177 179 180 0
-115 -129 -177 180 0
115 129 177 -180 0
-113 -153 181 0
-113 -179 181 0
-153 -179 181 0
113 153 -181 0
113 179 -181 0
153 179 -181 0
113 -181 -182 0
153 -181 -182 0
179 -181 -182 0
-113 181 182 0
-153 181 182 0
-179 181 182 0
-113 -153 -179 182 0
113 153 179 -182 0
-111 -145 183 0
-111 -181 183 0
-145 -181 183 0
111 145 -183 0
111 181 -183 0
145 181 -183 0
111 -183 -184 0
145 -183 -184 0
181 -183 -184 0
-111 183 184 0
-145 183 184 0
-181 183 184 0
-111 -145 -181 184 0
111 145 181 -184 0
-112 -141 185 0
-112 -183 185 0
-141 -183 185 0
112 141 -185 0
112 183 -185 0
141 183 -185 0
112 -185 -186 0
141 -185 -186 0
183 -185 -186 0
-112 185 186 0
-141 185 186 0
-183 185 186 0
-112 -141 -183 186 0
112 141 183 -186 0
107 -187 0
161 -187 0
-107 -161 187 0
-107 -161 -188 0
107 161 -188 0
-107 161 188 0
107 -161 188 0
-157 -176 189 0
-176 -187 189 0
-157 -187 189 0
157 176 -189 0
176 187 -189 0
157 187 -189 0
176 -189 -190 0
157 -189 -190 0
187 -189 -190 0
-176 189 190 0
-157 189 190 0
-187 189 190 0
-157 -176 -187 190 0
157 176 187 -190 0
-148 -178 191 0
-178 -189 191 0
-148 -189 191 0
148 178 -191 0
178 189 -191 0
148 189 -191 0
178 -191 -192 0
148 -191 -192 0
189 -191 -192 0
-178 191 192 0
-148 191 192 0
-189 191 192 0
-148 -178 -189 192 0
148 178 189 -192 0
-136 -180 193 0
-180 -191 193 0
-136 -191 193 0
136 180 -193 0
180 191 -193 0
136 191 -193 0
180 -193 -194 0
136 -193 -194 0
191 -193 -194 0
-180 193 194 0
-136 193 194 0
-191 193 194 0
-136 -180 -191 194 0
136 180 191 -194 0
-129 -182 195 0
-182 -193 195 0
-129 -193 195 0
129 182 -195 0
182 193 -195 0
129 193 -195 0
182 -195 -196 0
129 -195 -196 0
193 -195 -196 0
-182 195 196 0
-129 195 196 0
-193 195 196 0
-129 -182 -193 196 0
129 182 193 -196 0
-153 -184 197 0
-184 -195 197 0
-153 -195 197 0
153 184 -197 0
184 195 -197 0
153 195 -197 0
184 -197 -198 0
153 -197 -198 0
195 -197 -198 0
-184 197 198 0
-153 197 198 0
-195 197 198 0
-153 -184 -195 198 0
153 184 195 -198 0
-145 -186 199 0
-186 -197 199 0
-145 -197 199 0
145 186 -199 0
186 197 -199 0
145 197 -199 0
186 -199 -200 0
145 -199 -200 0
197 -199 -200 0
-186 199 200 0
-145 199 200 0
-197 199 200 0
-145 -186 -197 200 0
145 186 197 -200 0
-141 -185 201 0
-185 -199 201 0
-141 -199 201 0
141 185 -201 0
185 199 -201 0
141 199 -201 0
185 -201 -202 0
141 -201 -202 0
199 -201 -202 0
-185 201 202 0
-141 201 202 0
-199 201 202 0
-141 -185 -199 202 0
141 185 199 -202 0
-161 -203 0
-170 -203 0
161 170 203 0
161 170 -204 0
-161 -170 -204 0
-161 170 204 0
161 -170 204 0
203 -205 0
-128 -205 0
128 -203 205 0
128 -203 -206 0
-128 203 -206 0
128 203 206 0
-128 -203 206 0
205 -207 0
-109 -207 0
109 -205 207 0
109 -205 -208 0
-109 205 -208 0
109 205 208 0
-109 -205 208 0
207 -209 0
-188 -209 0
188 -207 209 0
188 -207 -210 0
-188 207 -210 0
188 207 210 0
-188 -207 210 0
209 -211 0
-190 -211 0
190 -209 211 0
190 -209 -212 0
-190 209 -212 0
190 209 212 0
-190 -209 212 0
211 -213 0
-192 -213 0
192 -211 213 0
192 -211 -214 0
-192 211 -214 0
192 211 214 0
-192 -211 214 0
213 -215 0
-194 -215 0
194 -213 215 0
194 -213 -216 0
-194 213 -216 0
194 213 216 0
-194 -213 216 0
215 -217 0
-196 -217 0
196 -215 217 0
196 -215 -218 0
-196 215 -218 0
196 215 218 0
-196 -215 218 0
217 -219 0
-198 -219 0
198 -217 219 0
-162 198 -217 0
-162 -198 217 0
162 198 217 0
162 -198 -217 0
-158 219 0
-158 -200 0
158 200 -219 0
-149 200 -219 0
-149 -200 219 0
149 200 219 0
149 -200 -219 0
-137 158 0
-137 -202 0
137 -158 202 0
-130 -158 202 0
-130 158 -202 0
130 158 202 0
130 -158 -202 0
137 -154 0
-154 -201 0
-137 154 201 0
-137 -146 201 0
137 -146 -201 0
137 146 201 0
-137 146 -201 0
-142 -220 0
-142 -222 0
142 220 222 0
220 -221 222 0
-220 -221 -222 0
-220 221 222 0
220 221 -222 0
142 -223 0
-223 -224 0
-142 223 224 0
-142 224 -225 0
142 -224 -225 0
142 224 225 0
-142 -224 225 0
223 -226 0
-226 -227 0
-223 226 227 0
-223 227 -228 0
223 -227 -228 0
223 227 228 0
-223 -227 228 0
226 -230 0
-229 -230 0
-226 229 230 0
-226 229 -232 0
226 -229 -232 0
226 229 232 0
-226 -229 232 0
230 -233 0
-231 -233 0
-230 231 233 0
-230 231 -234 0
230 -231 -234 0
230 231 234 0
-230 -231 234 0
233 -235 0
-105 -235 0
105 -233 235 0
-104 105 -233 0
-104 -105 233 0
104 105 233 0
104 -105 -233 0
-103 235 0
-102 -103 0
102 103 -235 0
-101 102 -235 0
-101 -102 235 0
101 102 235 0
101 -102 -235 0
-100 222 0
-100 220 0
100 -220 -222 0
-99 -220 -222 0
-99 220 222 0
99 220 -222 0
99 -220 222 0
98 -222 -224 0
98 -100 -224 0
98 -100 -222 0
-98 222 224 0
-98 100 224 0
-98 100 222 0
-97 -98 224 0
-97 -98 222 0
-97 -98 100 0
97 98 -224 0
97 98 -222 0
97 98 -100 0
97 -100 -222 -224 0
-97 100 222 224 0
96 -224 -227 0
96 -98 -227 0
96 -98 -224 0
-96 224 227 0
-96 98 227 0
-96 98 224 0
-95 -96 227 0
-95 -96 224 0
-95 -96 98 0
95 96 -227 0
95 96 -224 0
95 96 -98 0
95 -98 -224 -227 0
-95 98 224 227 0
94 -227 -229 0
94 -96 -229 0
94 -96 -227 0
-94 227 229 0
-94 96 229 0
-94 96 227 0
-93 -94 229 0
-93 -94 227 0
-93 -94 96 0
93 94 -229 0
93 94 -227 0
93 94 -96 0
93 -96 -227 -229 0
-93 96 227 229 0
92 -229 -231 0
92 -94 -231 0
92 -94 -229 0
-92 229 231 0
-92 94 231 0
-92 94 229 0
-91 -92 231 0
-91 -92 229 0
-91 -92 94 0
91 92 -231 0
91 92 -229 0
91 92 -94 0
91 -94 -229 -231 0
-91 94 229 231 0
90 -105 -231 0
90 -92 -105 0
90 -92 -231 0
-90 105 231 0
-90 92 105 0
-90 92 231 0
-89 -90 105 0
-89 -90 231 0
-89 -90 92 0
89 90 -105 0
89 90 -231 0
89 90 -92 0
89 -92 -105 -231 0
-89 92 105 231 0
88 -102 -105 0
88 -90 -102 0
88 -90 -105 0
-88 102 105 0
-88 90 102 0
-88 90 105 0
-87 -88 102 0
-87 -88 105 0
-87 -88 90 0
87 88 -102 0
87 88 -105 0
87 88 -90 0
87 -90 -102 -105 0
-87 90 102 105 0
-86 102 0
-86 88 0
86 -88 -102 0
-85 -88 -102 0
-85 88 102 0
85 88 -102 0
85 -88 102 0
-84 97 0
-84 220 0
84 -97 -220 0
-83 -97 -220 0
-83 97 220 0
83 -97 220 0
83 97 -220 0
82 -95 -222 0
82 -84 -95 0
82 -84 -222 0
-82 95 222 0
-82 84 95 0
-82 84 222 0
-81 -82 95 0
-81 -82 222 0
-81 -82 84 0
81 82 -95 0
81 82 -222 0
81 82 -84 0
81 -84 -95 -222 0
-81 84 95 222 0
80 -93 -224 0
80 -82 -93 0
80 -82 -224 0
-80 93 224 0
-80 82 93 0
-80 82 224 0
-79 -80 93 0
-79 -80 224 0
-79 -80 82 0
79 80 -93 0
79 80 -224 0
79 80 -82 0
79 -82 -93 -224 0
-79 82 93 224 0
78 -91 -227 0
78 -80 -91 0
78 -80 -227 0
-78 91 227 0
-78 80 91 0
-78 80 227 0
-77 -78 91 0
-77 -78 227 0
-77 -78 80 0
77 78 -91 0
77 78 -227 0
77 78 -80 0
77 -80 -91 -227 0
-77 80 91 227 0
76 -89 -229 0
76 -78 -89 0
76 -78 -229 0
-76 89 229 0
-76 78 89 0
-76 78 229 0
-75 -76 89 0
-75 -76 229 0
-75 -76 78 0
75 76 -89 0
75 76 -229 0
75 76 -78 0
75 -78 -89 -229 0
-75 78 89 229 0
74 -87 -231 0
74 -76 -87 0
74 -76 -231 0
-74 87 231 0
-74 76 87 0
-74 76 231 0
-73 -74 87 0
-73 -74 231 0
-73 -74 76 0
73 74 -87 0
73 74 -231 0
73 74 -76 0
73 -76 -87 -231 0
-73 76 87 231 0
72 -85 -105 0
72 -74 -85 0
72 -74 -105 0
-72 85 105 0
-72 74 85 0
-72 74 105 0
-71 -72 85 0
-71 -72 105 0
-71 -72 74 0
71 72 -85 0
71 72 -105 0
71 72 -74 0
71 -74 -85 -105 0
-71 74 85 105 0
70 -86 -102 0
70 -72 -86 0
70 -72 -102 0
-70 86 102 0
-70 72 86 0
-70 72 102 0
-69 -70 86 0
-69 -70 102 0
-69 -70 72 0
69 70 -86 0
69 70 -102 0
69 70 -72 0
69 -72 -86 -102 0
-69 72 86 102 0
-68 81 0
-68 220 0
68 -81 -220 0
-67 -81 -220 0
-67 81 220 0
67 -81 220 0
67 81 -220 0
66 -79 -222 0
66 -68 -79 0
66 -68 -222 0
-66 79 222 0
-66 68 79 0
-66 68 222 0
-65 -66 79 0
-65 -66 222 0
-65 -66 68 0
65 66 -79 0
65 66 -222 0
65 66 -68 0
65 -68 -79 -222 0
-65 68 79 222 0
64 -77 -224 0
64 -66 -77 0
64 -66 -224 0
-64 77 224 0
-64 66 77 0
-64 66 224 0
-63 -64 77 0
-63 -64 224 0
-63 -64 66 0
63 64 -77 0
63 64 -224 0
63 64 -66 0
63 -66 -77 -224 0
-63 66 77 224 0
62 -75 -227 0
62 -64 -75 0
62 -64 -227 0
-62 75 227 0
-62 64 75 0
-62 64 227 0
-61 -62 75 0
-61 -62 227 0
-61 -62 64 0
61 62 -75 0
61 62 -227 0
61 62 -64 0
61 -64 -75 -227 0
-61 64 75 227 0
60 -73 -229 0
60 -62 -73 0
60 -62 -229 0
-60 73 229 0
-60 62 73 0
-60 62 229 0
-59 -60 73 0
-59 -60 229 0
-59 -60 62 0
59 60 -73 0
59 60 -229 0
59 60 -62 0
59 -62 -73 -229 0
-59 62 73 229 0
58 -71 -231 0
58 -60 -71 0
58 -60 -231 0
-58 71 231 0
-58 60 71 0
-58 60 231 0
-57 -58 71 0
-57 -58 231 0
-57 -58 60 0
57 58 -71 0
57 58 -231 0
57 58 -60 0
57 -60 -71 -231 0
-57 60 71 231 0
56 -69 -105 0
56 -58 -69 0
56 -58 -105 0
-56 69 105 0
-56 58 69 0
-56 58 105 0
-55 -56 69 0
-55 -56 105 0
-55 -56 58 0
55 56 -69 0
55 56 -105 0
55 56 -58 0
55 -58 -69 -105 0
-55 58 69 105 0
54 -70 -102 0
54 -56 -70 0
54 -56 -102 0
-54 70 102 0
-54 56 70 0
-54 56 102 0
-53 -54 70 0
-53 -54 102 0
-53 -54 56 0
53 54 -70 0
53 54 -102 0
53 54 -56 0
53 -56 -70 -102 0
-53 56 70 102 0
-52 63 0
-52 220 0
52 -63 -220 0
-51 -63 -220 0
-51 63 220 0
51 -63 220 0
51 63 -220 0
50 -61 -222 0
50 -52 -61 0
50 -52 -222 0
-50 61 222 0
-50 52 61 0
-50 52 222 0
-49 -50 61 0
-49 -50 222 0
-49 -50 52 0
49 50 -61 0
49 50 -222 0
49 50 -52 0
49 -52 -61 -222 0
-49 52 61 222 0
48 -59 -224 0
48 -50 -59 0
48 -50 -224 0
-48 59 224 0
-48 50 59 0
-48 50 224 0
-47 -48 59 0
-47 -48 224 0
-47 -48 50 0
47 48 -59 0
47 48 -224 0
47 48 -50 0
47 -50 -59 -224 0
-47 50 59 224 0
46 -57 -227 0
46 -48 -57 0
46 -48 -227 0
-46 57 227 0
-46 48 57 0
-46 48 227 0
-45 -46 57 0
-45 -46 227 0
-45 -46 48 0
45 46 -57 0
45 46 -227 0
45 46 -48 0
45 -48 -57 -227 0
-45 48 57 227 0
44 -55 -229 0
44 -46 -55 0
44 -46 -229 0
-44 55 229 0
-44 46 55 0
-44 46 229 0
-43 -44 55 0
-43 -44 229 0
-43 -44 46 0
43 44 -55 0
43 44 -229 0
43 44 -46 0
43 -46 -55 -229 0
-43 46 55 229 0
42 -53 -231 0
42 -44 -53 0
42 -44 -231 0
-42 53 231 0
-42 44 53 0
-42 44 231 0
-41 -42 53 0
-41 -42 231 0
-41 -42 44 0
41 42 -53 0
41 42 -231 0
41 42 -44 0
41 -44 -53 -231 0
-41 44 53 231 0
40 -54 -105 0
40 -42 -54 0
40 -42 -105 0
-40 54 105 0
-40 42 54 0
-40 42 105 0
-39 -40 54 0
-39 -40 105 0
-39 -40 42 0
39 40 -54 0
39 40 -105 0
39 40 -42 0
39 -42 -54 -105 0
-39 42 54 105 0
-38 102 0
-38 40 0
38 -40 -102 0
-37 -40 -102 0
-37 40 102 0
37 40 -102 0
37 -40 102 0
-36 -220 0
-36 -99 0
36 99 220 0
-35 99 220 0
-35 -99 -220 0
35 99 -220 0
35 -99 220 0
-34 36 0
-34 -83 0
34 -36 83 0
-33 -36 83 0
-33 36 -83 0
33 36 83 0
33 -36 -83 0
-32 34 0
-32 -67 0
32 -34 67 0
-31 -34 67 0
-31 34 -67 0
31 34 67 0
31 -34 -67 0
-30 32 0
-30 -65 0
30 -32 65 0
-29 -32 65 0
-29 32 -65 0
29 32 65 0
29 -32 -65 0
-28 30 0
-28 -51 0
28 -30 51 0
-27 -30 51 0
-27 30 -51 0
27 30 51 0
27 -30 -51 0
-26 28 0
-26 -49 0
26 -28 49 0
-25 -28 49 0
-25 28 -49 0
25 28 49 0
25 -28 -49 0
-24 26 0
-24 -47 0
24 -26 47 0
-23 -26 47 0
-23 26 -47 0
23 26 47 0
23 -26 -47 0
-22 24 0
-22 -45 0
22 -24 45 0
-21 -24 45 0
-21 24 -45 0
21 24 45 0
21 -24 -45 0
-20 22 0
-20 -43 0
20 -22 43 0
-19 -22 43 0
-19 22 -43 0
19 22 43 0
19 -22 -43 0
-18 20 0
-18 -41 0
18 -20 41 0
-17 -20 41 0
-17 20 -41 0
17 20 41 0
17 -20 -41 0
-16 18 0
-16 -39 0
16 -18 39 0
-15 -18 39 0
-15 18 -39 0
15 18 39 0
15 -18 -39 0
-14 16 0
-14 -37 0
14 -16 37 0
-13 -16 37 0
-13 16 -37 0
13 16 37 0
13 -16 -37 0
-12 14 0
-12 -38 0
12 -14 38 0
-11 -14 38 0
-11 14 -38 0
11 14 38 0
11 -14 -38 0
-10 161 0
-10 220 0
10 -161 -220 0
-161 -220 0
161 220 0
9 -99 -170 0
9 -10 -170 0
9 -10 -99 0
-9 99 170 0
-9 10 170 0
-9 10 99 0
-9 170 0
-9 99 0
-9 10 0
10 99 170 0
8 -83 -128 0
8 -9 -128 0
8 -9 -83 0
-8 83 128 0
-8 9 128 0
-8 9 83 0
-8 128 0
-8 83 0
-8 9 0
9 83 128 0
7 -67 -109 0
7 -8 -109 0
7 -8 -67 0
-7 67 109 0
-7 8 109 0
-7 8 67 0
7 -109 0
7 -67 0
7 -8 0
-8 -67 -109 0
6 -65 -188 0
6 -7 -188 0
6 -7 -65 0
-6 65 188 0
-6 7 188 0
-6 7 65 0
-6 188 0
-6 65 0
-6 7 0
7 65 188 0
5 -51 -190 0
5 -6 -190 0
5 -6 -51 0
-5 51 190 0
-5 6 190 0
-5 6 51 0
5 -190 0
5 -51 0
5 -6 0
-6 -51 -190 0
4 -49 -192 0
4 -5 -192 0
4 -5 -49 0
-4 49 192 0
-4 5 192 0
-4 5 49 0
-4 192 0
-4 49 0
-4 5 0
5 49 192 0
3 -47 -194 0
3 -4 -194 0
3 -4 -47 0
-3 47 194 0
-3 4 194 0
-3 4 47 0
3 -194 0
3 -47 0
3 -4 0
-4 -47 -194 0
2 -45 -196 0
2 -3 -196 0
2 -3 -45 0
-2 45 196 0
-2 3 196 0
-2 3 45 0
2 -196 0
2 -45 0
2 -3 0
-3 -45 -196 0
1 -43 -198 0
1 -2 -198 0
1 -2 -43 0
-1 43 198 0
-1 2 198 0
-1 2 43 0
1 -198 0
1 -43 0
1 -2 0
-2 -43 -198 0
-41 156 -200 0
-1 156 -200 0
-1 -41 156 0
41 -156 200 0
1 -156 200 0
1 41 -156 0
156 -200 0
-41 156 0
-1 156 0
-1 -41 -200 0
-39 135 -202 0
135 -156 -202 0
-39 135 -156 0
39 -135 202 0
-135 156 202 0
39 -135 156 0
135 -202 0
-39 135 0
135 -156 0
-39 -156 -202 0
-37 152 -201 0
-135 152 -201 0
-37 -135 152 0
37 -152 201 0
135 -152 201 0
37 135 -152 0
152 -201 0
-37 152 0
-135 152 0
-37 -135 -201 0
-38 -152 0
-38 152 0
38 -152 0
